%BLOCK LATTICE_CART
2.519427   0.000000   0.000000
0.000000   2.519427   0.000000
0.000000   0.000000  56.690974
%ENDBLOCK LATTICE_CART

%BLOCK positions_frac
   Cu               1.000000000000000       0.000000000000000       0.7342111
   Cu               0.500000000000000       0.500000000000000       0.7037479
   Cu               1.000000000000000       0.000000000000000       0.6722799
   Cu               0.500000000000000       0.500000000000000       0.6408783
   Cu               1.000000000000000       0.000000000000000       0.6095275
   Cu               0.500000000000000       0.500000000000000       0.5782989
   Cu               1.000000000000000       0.000000000000000       0.5468815
   Cu               0.500000000000000       0.500000000000000       0.5155263
   Cu               1.000000000000000       0.000000000000000       0.4840233
   Cu               0.500000000000000       0.500000000000000       0.4526469
   Cu               1.000000000000000       0.000000000000000       0.4211834
   Cu               0.500000000000000       0.500000000000000       0.3899178
   Cu               1.000000000000000       0.000000000000000       0.3585429
   Cu               0.500000000000000       0.500000000000000       0.3271308
   Cu               1.000000000000000       0.000000000000000       0.2956534
   Cu               0.500000000000000       0.500000000000000       0.2651847
%ENDBLOCK positions_frac

SYMMETRY_GENERATE
SNAP_TO_SYMMETRY: TRUE
FIX_ALL_CELL: TRUE
KPOINT_MP_GRID: 9 9 1
SPECTRAL_KPOINT_MP_GRID: 27 27 1