%BLOCK LATTICE_CART
0.00 2.73 2.73
2.73 0.00 2.73
2.73 2.73 0.0 
%ENDBLOCK LATTICE_CART

%BLOCK POSITIONS_FRAC
Si              0.500000        0.500000        0.500000
Si              0.750000        0.750000        0.750000
%ENDBLOCK POSITIONS_FRAC

KPOINTS_MP_GRID 10 10 10  


%BLOCK SPECTRAL_KPOINTS_LIST
0.0 0.0 0.0
0.013513513513513514 0.0 0.013513513513513514
0.02702702702702703 0.0 0.02702702702702703
0.04054054054054054 0.0 0.04054054054054054
0.05405405405405406 0.0 0.05405405405405406
0.06756756756756757 0.0 0.06756756756756757
0.08108108108108109 0.0 0.08108108108108109
0.0945945945945946 0.0 0.0945945945945946
0.10810810810810811 0.0 0.10810810810810811
0.12162162162162163 0.0 0.12162162162162163
0.13513513513513514 0.0 0.13513513513513514
0.14864864864864866 0.0 0.14864864864864866
0.16216216216216217 0.0 0.16216216216216217
0.17567567567567569 0.0 0.17567567567567569
0.1891891891891892 0.0 0.1891891891891892
0.20270270270270271 0.0 0.20270270270270271
0.21621621621621623 0.0 0.21621621621621623
0.22972972972972974 0.0 0.22972972972972974
0.24324324324324326 0.0 0.24324324324324326
0.25675675675675674 0.0 0.25675675675675674
0.2702702702702703 0.0 0.2702702702702703
0.28378378378378377 0.0 0.28378378378378377
0.2972972972972973 0.0 0.2972972972972973
0.3108108108108108 0.0 0.3108108108108108
0.32432432432432434 0.0 0.32432432432432434
0.33783783783783783 0.0 0.33783783783783783
0.35135135135135137 0.0 0.35135135135135137
0.36486486486486486 0.0 0.36486486486486486
0.3783783783783784 0.0 0.3783783783783784
0.3918918918918919 0.0 0.3918918918918919
0.40540540540540543 0.0 0.40540540540540543
0.4189189189189189 0.0 0.4189189189189189
0.43243243243243246 0.0 0.43243243243243246
0.44594594594594594 0.0 0.44594594594594594
0.4594594594594595 0.0 0.4594594594594595
0.47297297297297297 0.0 0.47297297297297297
0.4864864864864865 0.0 0.4864864864864865
0.5 0.0 0.5
0.5104166666666666 0.020833333333333332 0.5104166666666666
0.5208333333333334 0.041666666666666664 0.5208333333333334
0.53125 0.0625 0.53125
0.5416666666666666 0.08333333333333333 0.5416666666666666
0.5520833333333334 0.10416666666666667 0.5520833333333334
0.5625 0.125 0.5625
0.5729166666666666 0.14583333333333334 0.5729166666666666
0.5833333333333334 0.16666666666666666 0.5833333333333334
0.59375 0.1875 0.59375
0.6041666666666666 0.20833333333333334 0.6041666666666666
0.6145833333333334 0.22916666666666666 0.6145833333333334
0.625 0.25 0.625
0.375 0.375 0.75
0.36538461538461536 0.36538461538461536 0.7307692307692307
0.3557692307692308 0.3557692307692308 0.7115384615384616
0.34615384615384615 0.34615384615384615 0.6923076923076923
0.33653846153846156 0.33653846153846156 0.6730769230769231
0.3269230769230769 0.3269230769230769 0.6538461538461539
0.3173076923076923 0.3173076923076923 0.6346153846153846
0.3076923076923077 0.3076923076923077 0.6153846153846154
0.2980769230769231 0.2980769230769231 0.5961538461538461
0.28846153846153844 0.28846153846153844 0.5769230769230769
0.27884615384615385 0.27884615384615385 0.5576923076923077
0.2692307692307692 0.2692307692307692 0.5384615384615384
0.2596153846153846 0.2596153846153846 0.5192307692307692
0.25 0.25 0.5
0.2403846153846154 0.2403846153846154 0.4807692307692308
0.23076923076923078 0.23076923076923078 0.46153846153846156
0.22115384615384615 0.22115384615384615 0.4423076923076923
0.21153846153846154 0.21153846153846154 0.4230769230769231
0.20192307692307693 0.20192307692307693 0.40384615384615385
0.19230769230769232 0.19230769230769232 0.38461538461538464
0.18269230769230768 0.18269230769230768 0.36538461538461536
0.17307692307692307 0.17307692307692307 0.34615384615384615
0.16346153846153846 0.16346153846153846 0.3269230769230769
0.15384615384615385 0.15384615384615385 0.3076923076923077
0.14423076923076922 0.14423076923076922 0.28846153846153844
0.1346153846153846 0.1346153846153846 0.2692307692307692
0.125 0.125 0.25
0.11538461538461536 0.11538461538461536 0.23076923076923073
0.10576923076923078 0.10576923076923078 0.21153846153846156
0.09615384615384615 0.09615384615384615 0.1923076923076923
0.08653846153846156 0.08653846153846156 0.17307692307692313
0.07692307692307693 0.07692307692307693 0.15384615384615385
0.06730769230769229 0.06730769230769229 0.13461538461538458
0.05769230769230771 0.05769230769230771 0.11538461538461542
0.04807692307692307 0.04807692307692307 0.09615384615384615
0.038461538461538436 0.038461538461538436 0.07692307692307687
0.028846153846153855 0.028846153846153855 0.05769230769230771
0.019230769230769218 0.019230769230769218 0.038461538461538436
0.009615384615384637 0.009615384615384637 0.019230769230769273
0.0 0.0 0.0
0.015625 0.015625 0.015625
0.03125 0.03125 0.03125
0.046875 0.046875 0.046875
0.0625 0.0625 0.0625
0.078125 0.078125 0.078125
0.09375 0.09375 0.09375
0.109375 0.109375 0.109375
0.125 0.125 0.125
0.140625 0.140625 0.140625
0.15625 0.15625 0.15625
0.171875 0.171875 0.171875
0.1875 0.1875 0.1875
0.203125 0.203125 0.203125
0.21875 0.21875 0.21875
0.234375 0.234375 0.234375
0.25 0.25 0.25
0.265625 0.265625 0.265625
0.28125 0.28125 0.28125
0.296875 0.296875 0.296875
0.3125 0.3125 0.3125
0.328125 0.328125 0.328125
0.34375 0.34375 0.34375
0.359375 0.359375 0.359375
0.375 0.375 0.375
0.390625 0.390625 0.390625
0.40625 0.40625 0.40625
0.421875 0.421875 0.421875
0.4375 0.4375 0.4375
0.453125 0.453125 0.453125
0.46875 0.46875 0.46875
0.484375 0.484375 0.484375
0.5 0.5 0.5
0.5 0.49038461538461536 0.5096153846153846
0.5 0.4807692307692308 0.5192307692307693
0.5 0.47115384615384615 0.5288461538461539
0.5 0.46153846153846156 0.5384615384615384
0.5 0.4519230769230769 0.5480769230769231
0.5 0.4423076923076923 0.5576923076923077
0.5 0.4326923076923077 0.5673076923076923
0.5 0.4230769230769231 0.5769230769230769
0.5 0.41346153846153844 0.5865384615384616
0.5 0.40384615384615385 0.5961538461538461
0.5 0.3942307692307692 0.6057692307692307
0.5 0.3846153846153846 0.6153846153846154
0.5 0.375 0.625
0.5 0.3653846153846154 0.6346153846153846
0.5 0.3557692307692308 0.6442307692307692
0.5 0.34615384615384615 0.6538461538461539
0.5 0.33653846153846156 0.6634615384615384
0.5 0.3269230769230769 0.6730769230769231
0.5 0.3173076923076923 0.6826923076923077
0.5 0.3076923076923077 0.6923076923076923
0.5 0.2980769230769231 0.7019230769230769
0.5 0.28846153846153844 0.7115384615384616
0.5 0.27884615384615385 0.7211538461538461
0.5 0.2692307692307692 0.7307692307692308
0.5 0.2596153846153846 0.7403846153846154
0.5 0.25 0.75
0.5 0.2361111111111111 0.7361111111111112
0.5 0.2222222222222222 0.7222222222222222
0.5 0.20833333333333334 0.7083333333333334
0.5 0.19444444444444445 0.6944444444444444
0.5 0.18055555555555555 0.6805555555555556
0.5 0.16666666666666669 0.6666666666666666
0.5 0.1527777777777778 0.6527777777777778
0.5 0.1388888888888889 0.6388888888888888
0.5 0.125 0.625
0.5 0.1111111111111111 0.6111111111111112
0.5 0.09722222222222221 0.5972222222222222
0.5 0.08333333333333334 0.5833333333333334
0.5 0.06944444444444445 0.5694444444444444
0.5 0.05555555555555555 0.5555555555555556
0.5 0.04166666666666666 0.5416666666666666
0.5 0.02777777777777779 0.5277777777777778
0.5 0.013888888888888895 0.5138888888888888
0.5 0.0 0.5
%ENDBLOCK SPECTRAL_KPOINTS_LIST
