%BLOCK LATTICE_CART
2.73  2.73 0.00
2.73  0.00 2.73
0.00  2.73 2.73
%ENDBLOCK  LATTICE_CART

%BLOCK POSITIONS_FRAC
Si 0.0     0.0     0.0
Si:Ext 0.25    0.25    0.25
%ENDBLOCK POSITIONS_FRAC

SYMMETRY_GENERATE

KPOINTS_MP_GRID 4 4 4  
SPECTRAL_KPOINTS_MP_GRID 6 6 6
