#
# CELL written by cell_write: Keith Refson, Oct 2006
#
%BLOCK lattice_cart
   ANG
       5.75018200000000        0.00000000000000        0.00000000000000    
       0.00000000000000        5.75018200000000        0.00000000000000    
       0.00000000000000        0.00000000000000        5.75018200000000    
%ENDBLOCK lattice_cart

%BLOCK cell_constraints
      1   1   1
      4   4   4
%ENDBLOCK cell_constraints

%BLOCK positions_frac
   Ga             0.000000000000000       0.500000000000000       0.500000000000000
   Ga             0.500000000000000       0.000000000000000       0.500000000000000
   Ga             0.500000000000000       0.500000000000000       0.000000000000000
   As             0.250000000000000       0.750000000000000       0.750000000000000
   As             0.750000000000000       0.250000000000000       0.750000000000000
   As             0.750000000000000       0.750000000000000       0.250000000000000
   Ga:Ext         0.000000000000000       0.000000000000000       0.000000000000000
   As:Ext         0.250000000000000       0.250000000000000       0.250000000000000
%ENDBLOCK positions_frac

FIX_COM : true

%BLOCK species_gamma
   radsectesla
   Ga         81811710.00    
   Ga:Exi     81811710.00    
%ENDBLOCK species_gamma

%BLOCK species_pot
   Ga      3|2.0|10|12|13|40:41:32(qc=6)
   As      3|2.0|10|12|13|40:41:32(qc=6)
   Ga:Ex   3|2.0|10|12|13|40:41:32(qc=6)
   As:Ex   3|2.0|10|12|13|40:41:32(qc=6)
%ENDBLOCK species_pot

%BLOCK species_lcao_states
   Ga      4
   As      4
   Ga:Ex   4
   As:Ex   4
%ENDBLOCK species_lcao_states

SYMMETRY_TOL :     0.001000

%BLOCK symmetry_ops
# Symm. op. 1       E
          1.000000000000000       0.000000000000000       0.000000000000000
          0.000000000000000       1.000000000000000       0.000000000000000
          0.000000000000000       0.000000000000000       1.000000000000000
          0.000000000000000       0.000000000000000       0.000000000000000
# Symm. op. 2       3
          0.000000000000000       1.000000000000000       0.000000000000000
          0.000000000000000       0.000000000000000       1.000000000000000
          1.000000000000000       0.000000000000000       0.000000000000000
          0.000000000000000       0.000000000000000       0.000000000000000
# Symm. op. 3       3
          0.000000000000000       0.000000000000000       1.000000000000000
          1.000000000000000       0.000000000000000       0.000000000000000
          0.000000000000000       1.000000000000000       0.000000000000000
          0.000000000000000       0.000000000000000       0.000000000000000
# Symm. op. 4       m
          0.000000000000000       1.000000000000000       0.000000000000000
          1.000000000000000       0.000000000000000       0.000000000000000
          0.000000000000000       0.000000000000000       1.000000000000000
          0.000000000000000       0.000000000000000       0.000000000000000
# Symm. op. 5       m
          1.000000000000000       0.000000000000000       0.000000000000000
          0.000000000000000       0.000000000000000       1.000000000000000
          0.000000000000000       1.000000000000000       0.000000000000000
          0.000000000000000       0.000000000000000       0.000000000000000
# Symm. op. 6       m
          0.000000000000000       0.000000000000000       1.000000000000000
          0.000000000000000       1.000000000000000       0.000000000000000
          1.000000000000000       0.000000000000000       0.000000000000000
          0.000000000000000       0.000000000000000       0.000000000000000
%ENDBLOCK symmetry_ops

kpoint_mp_grid :    2   2   2

