%BLOCK LATTICE_CART
5.75018200 0.00 0.00
0.00 5.75018200 0.00
0.00 0.00 5.75018200
%ENDBLOCK  LATTICE_CART

%BLOCK POSITIONS_FRAC
Ga:Exi 0.00000000  0.00000000  0.00000000 
Ga 0.00000000  0.50000000  0.50000000
Ga 0.50000000  0.00000000  0.50000000 
Ga 0.50000000  0.50000000  0.00000000 
As:Exi 0.25000000  0.25000000  0.25000000 
As 0.25000000  0.75000000  0.75000000
As 0.75000000  0.25000000  0.75000000
As 0.75000000  0.75000000  0.25000000 
%ENDBLOCK POSITIONS_FRAC

SYMMETRY_GENERATE

KPOINTS_MP_GRID 2 2 2 
SPECTRAL_KPOINTS_MP_GRID 2 2 2
