# CELL file written 19:12:45 (GMT-0.0) 26th January 2023 from run Graphene_prim

%BLOCK lattice_cart
   ANG
       2.13488600000000       -1.23257700000000        0.00000000000000    
       0.00000000000000        2.46515400000000        0.00000000000000    
       0.00000000000000        0.00000000000000        20.0000000000000    
%ENDBLOCK lattice_cart

%BLOCK cell_constraints
      1   2   3
      0   0   0
%ENDBLOCK cell_constraints

%BLOCK positions_frac
   C              0.000000000000000       0.000000000000000       0.000000000000000
   C              0.333333333333333       0.666666666666667       0.000000000000000
%ENDBLOCK positions_frac

FIX_COM : true

%BLOCK species_pot
   C       2|1.4|10|12|13|20:21(qc=7)
%ENDBLOCK species_pot

%BLOCK species_lcao_states
   C       2
%ENDBLOCK species_lcao_states

SYMMETRY_TOL :     0.001000

%BLOCK symmetry_ops
# Symm. op. 1       E
          1.000000000000000       0.000000000000000       0.000000000000000
          0.000000000000000       1.000000000000000       0.000000000000000
          0.000000000000000       0.000000000000000       1.000000000000000
          0.000000000000000       0.000000000000000       0.000000000000000
# Symm. op. 2       I
         -1.000000000000000       0.000000000000000       0.000000000000000
          0.000000000000000      -1.000000000000000       0.000000000000000
          0.000000000000000       0.000000000000000      -1.000000000000000
          0.333333333333333       0.666666666666667       0.000000000000000
# Symm. op. 3       6
          0.500000000000000      -0.866025399014280       0.000000000000000
          0.866025408554597       0.500000000000000       0.000000000000000
          0.000000000000000       0.000000000000000       1.000000000000000
          0.333333333333333       0.666666666666667       0.000000000000000
# Symm. op. 4      -6
         -0.500000000000000       0.866025399014280       0.000000000000000
         -0.866025408554597      -0.500000000000000       0.000000000000000
          0.000000000000000       0.000000000000000      -1.000000000000000
          0.000000000000000       0.000000000000000       0.000000000000000
# Symm. op. 5       3
         -0.500000000000000      -0.866025399014280       0.000000000000000
          0.866025408554597      -0.500000000000000       0.000000000000000
          0.000000000000000       0.000000000000000       1.000000000000000
          1.000000000000000       0.000000000000000       0.000000000000000
# Symm. op. 6      -3
          0.500000000000000       0.866025399014280       0.000000000000000
         -0.866025408554597       0.500000000000000       0.000000000000000
          0.000000000000000       0.000000000000000      -1.000000000000000
          0.333333333333333       0.666666666666667       0.000000000000000
# Symm. op. 7       2
         -1.000000000000000       0.000000000000000       0.000000000000000
          0.000000000000000      -1.000000000000000       0.000000000000000
          0.000000000000000       0.000000000000000       1.000000000000000
          0.333333333333333       0.666666666666667       0.000000000000000
# Symm. op. 8       m
          1.000000000000000       0.000000000000000       0.000000000000000
          0.000000000000000       1.000000000000000       0.000000000000000
          0.000000000000000       0.000000000000000      -1.000000000000000
          0.000000000000000       0.000000000000000       0.000000000000000
# Symm. op. 9       3
         -0.500000000000000       0.866025399014280       0.000000000000000
         -0.866025408554597      -0.500000000000000       0.000000000000000
          0.000000000000000       0.000000000000000       1.000000000000000
          0.000000000000000       0.000000000000000       0.000000000000000
# Symm. op. 10     -3
          0.500000000000000      -0.866025399014280       0.000000000000000
          0.866025408554597       0.500000000000000       0.000000000000000
          0.000000000000000       0.000000000000000      -1.000000000000000
          0.333333333333333       0.666666666666667       0.000000000000000
# Symm. op. 11      6
          0.500000000000000       0.866025399014280       0.000000000000000
         -0.866025408554597       0.500000000000000       0.000000000000000
          0.000000000000000       0.000000000000000       1.000000000000000
          0.333333333333333       0.666666666666667       0.000000000000000
# Symm. op. 12     -6
         -0.500000000000000      -0.866025399014280       0.000000000000000
          0.866025408554597      -0.500000000000000       0.000000000000000
          0.000000000000000       0.000000000000000      -1.000000000000000
          1.000000000000000       0.000000000000000       0.000000000000000
# Symm. op. 13      2
         -0.500000000000000      -0.866025399014280       0.000000000000000
         -0.866025408554597       0.500000000000000       0.000000000000000
          0.000000000000000       0.000000000000000      -1.000000000000000
          0.000000000000000       0.000000000000000       0.000000000000000
# Symm. op. 14      n
          0.500000000000000       0.866025399014280       0.000000000000000
          0.866025408554597      -0.500000000000000       0.000000000000000
          0.000000000000000       0.000000000000000       1.000000000000000
          0.333333333333333       0.666666666666667       0.000000000000000
# Symm. op. 15      2
          0.500000000000000      -0.866025399014280       0.000000000000000
         -0.866025408554597      -0.500000000000000       0.000000000000000
          0.000000000000000       0.000000000000000      -1.000000000000000
          0.333333333333333       0.666666666666667       0.000000000000000
# Symm. op. 16      m
         -0.500000000000000       0.866025399014280       0.000000000000000
          0.866025408554597       0.500000000000000       0.000000000000000
          0.000000000000000       0.000000000000000       1.000000000000000
          1.000000000000000       0.000000000000000       0.000000000000000
# Symm. op. 17      2
          1.000000000000000       0.000000000000000       0.000000000000000
          0.000000000000000      -1.000000000000000       0.000000000000000
          0.000000000000000       0.000000000000000      -1.000000000000000
          0.000000000000000       0.000000000000000       0.000000000000000
# Symm. op. 18      b
         -1.000000000000000       0.000000000000000       0.000000000000000
          0.000000000000000       1.000000000000000       0.000000000000000
          0.000000000000000       0.000000000000000       1.000000000000000
          0.333333333333333       0.666666666666667       0.000000000000000
# Symm. op. 19    2_1
          0.500000000000000       0.866025399014280       0.000000000000000
          0.866025408554597      -0.500000000000000       0.000000000000000
          0.000000000000000       0.000000000000000      -1.000000000000000
          0.333333333333333       0.666666666666667       0.000000000000000
# Symm. op. 20      m
         -0.500000000000000      -0.866025399014280       0.000000000000000
         -0.866025408554597       0.500000000000000       0.000000000000000
          0.000000000000000       0.000000000000000       1.000000000000000
          0.000000000000000       0.000000000000000       0.000000000000000
# Symm. op. 21      2
         -0.500000000000000       0.866025399014280       0.000000000000000
          0.866025408554597       0.500000000000000       0.000000000000000
          0.000000000000000       0.000000000000000      -1.000000000000000
          1.000000000000000       0.000000000000000       0.000000000000000
# Symm. op. 22      m
          0.500000000000000      -0.866025399014280       0.000000000000000
         -0.866025408554597      -0.500000000000000       0.000000000000000
          0.000000000000000       0.000000000000000       1.000000000000000
          0.333333333333333       0.666666666666667       0.000000000000000
# Symm. op. 23    2_1
         -1.000000000000000       0.000000000000000       0.000000000000000
          0.000000000000000       1.000000000000000       0.000000000000000
          0.000000000000000       0.000000000000000      -1.000000000000000
          0.333333333333333       0.666666666666667       0.000000000000000
# Symm. op. 24      m
          1.000000000000000       0.000000000000000       0.000000000000000
          0.000000000000000      -1.000000000000000       0.000000000000000
          0.000000000000000       0.000000000000000       1.000000000000000
          0.000000000000000       0.000000000000000       0.000000000000000
%ENDBLOCK symmetry_ops

kpoint_mp_grid :   20   1   1

kpoint_mp_offset :        0.025000000000000       0.000000000000000       0.000000000000000

bs_kpoint_mp_grid :    9   9   1

optics_kpoint_mp_grid :    9   9   1

elnes_kpoint_mp_grid :    9   9   1

magres_kpoint_mp_grid :    9   9   1

phonon_kpoint_mp_grid :    9   9   1

