%BLOCK LATTICE_ABC
2.517885 2.517885 50
90.000000  90.000000  90.000000
%ENDBLOCK LATTICE_ABC

%BLOCK POSITIONS_FRAC
              Cu                       -0.250000   0.250000   0.266523   
              Cu                        0.250000  -0.250000   0.231863   
              Cu                       -0.250000   0.250000   0.196014   
              Cu                        0.250000  -0.250000   0.160204   
              Cu                       -0.250000   0.250000   0.124622   
              Cu                        0.250000  -0.250000   0.089005   
              Cu                       -0.250000   0.250000   0.053413   
              Cu                        0.250000  -0.250000   0.017804   
              Cu                       -0.250000   0.250000  -0.017804   
              Cu                        0.250000  -0.250000  -0.053413   
              Cu                       -0.250000   0.250000  -0.089005   
              Cu                        0.250000  -0.250000  -0.124622   
              Cu                       -0.250000   0.250000  -0.160204   
              Cu                        0.250000  -0.250000  -0.196014   
              Cu                       -0.250000   0.250000  -0.231863   
              Cu                        0.250000  -0.250000  -0.266523  
%ENDBLOCK POSITIONS_FRAC

symmetry_generate

fix_all_cell : true

kpoint_mp_grid 32 32 1
