# CELL file written 13:11:47 (GMT-0.0) 4th February 2022 from run atom-sc

%BLOCK lattice_cart
   ANG
       10.3209310000000        0.00000000000000        0.00000000000000    
       5.16017500000000        10.3341140000000      -0.102700000000000E-02
      0.515000000000000E-03    10.4274680000000        10.2624290000000    
%ENDBLOCK lattice_cart

%BLOCK positions_frac
   Na             0.310286932895438       0.379426015362722       0.418129243137056
   Na             0.189713018659320       0.120573984637277       0.081870756862944
   Na             0.110226881133686       0.279546193360042       0.300363402654535
   Na             0.389773021272127       0.220453904953105       0.199636499912485
   Na             0.310286956766208       0.379426064519296       0.918129194420567
   Na             0.189712945639605       0.120574033793851       0.581870708146454
   Na             0.110226857262917       0.279546144203468       0.800363451371025
   Na             0.389772997401357       0.220453855796532       0.699636548628975
   Na             0.310286956766208       0.879426064519296       0.418129194420567
   Na             0.189712945639605       0.620574033793851       0.081870708146454
   Na             0.110226857262917       0.779546144203468       0.300363451371025
   Na             0.389772997401357       0.720453855796532       0.199636548628975
   Na             0.310286932895438       0.879426015362722       0.918129243137056
   Na             0.189712921768836       0.620573984637277       0.581870756862944
   Na             0.110226881133686       0.779546193360042       0.800363402654535
   Na             0.389773021272127       0.720453904953105       0.699636499912485
   Na             0.810286981340680       0.379426015362722       0.418129243137056
   Na             0.689712970214078       0.120573984637277       0.081870756862944
   Na             0.610226929578928       0.279546193360042       0.300363402654535
   Na             0.889773069717369       0.220453904953105       0.199636499912485
   Na             0.810286908320966       0.379426064519296       0.918129194420567
   Na             0.689712994084847       0.120574033793851       0.581870708146454
   Na             0.610226905708159       0.279546144203468       0.800363451371025
   Na             0.889773045846599       0.220453855796532       0.699636548628975
   Na             0.810286908320966       0.879426064519296       0.418129194420567
   Na             0.689712994084847       0.620574033793851       0.081870708146454
   Na             0.610226905708159       0.779546144203468       0.300363451371025
   Na             0.889773045846599       0.720453855796532       0.199636548628975
   Na             0.810286884450196       0.879426015362722       0.918129243137056
   Na             0.689712970214078       0.620573984637277       0.581870756862944
   Na             0.610226832688444       0.779546193360042       0.800363402654535
   Na             0.889772972826885       0.720453904953105       0.699636499912485
   Ge             0.000000000000000       0.000000000000000       0.000000000000000
   Ge            -0.000000073019714       0.000000049156574       0.499999951283510
   Ge            -0.000000073019714       0.500000049156574      -0.000000048716490
   Ge             0.000000000000000       0.500000000000000       0.500000000000000
   Ge             0.500000048445242       0.000000000000000       0.000000000000000
   Ge             0.499999975425528       0.000000049156574       0.499999951283510
   Ge             0.499999975425528       0.500000049156574      -0.000000048716490
   Ge:1K          0.499999951554758       0.500000000000000       0.500000000000000
%ENDBLOCK positions_frac

FIX_COM : true

%BLOCK species_pot
   Na      Na_HARD_PBE_OTF.usp
   Ge      Ge_HARD_PBE_OTF.usp
   Ge:1K   3|1.5|13|15|17|30U:31U:32:40:41(qc=6){1s1}
%ENDBLOCK species_pot

SYMMETRY_TOL :     0.001000

%BLOCK symmetry_ops
# Symm. op. 1       E
          1.000000000000000       0.000000000000000       0.000000000000000
          0.000000000000000       1.000000000000000       0.000000000000000
          0.000000000000000       0.000000000000000       1.000000000000000
          0.000000000000000       0.000000000000000       0.000000000000000
%ENDBLOCK symmetry_ops

kpoint_mp_grid :    4   5   4

