#######################################################
#CASTEP cell file: atom-sc.cell
#Created using the Atomic Simulation Environment (ASE)#
#######################################################

%BLOCK LATTICE_CART
10.320931  0.000000  0.000000
 5.160175 10.334114 -0.001027
 0.000515 10.427468 10.262429
%ENDBLOCK LATTICE_CART

%BLOCK POSITIONS_ABS
Na  5.160570  8.281061  4.290632
Na  2.580240  2.099730  0.840069
Na  2.580306  6.020892  3.082171
Na  5.160504  4.359899  2.048529
Ge  0.000000  0.000000  0.000000
Na  5.160828 13.494795  9.421846
Na  2.580497  7.313464  5.971283
Na  2.580563 11.234626  8.213386
Na  5.160761  9.573633  7.179744
Ge  0.000257  5.213734  5.131214
Na  7.740658 13.448118  4.290118
Na  5.160327  7.266787  0.839555
Na  5.160393 11.187949  3.081658
Na  7.740591  9.526956  2.048016
Ge  2.580087  5.167057 -0.000514
Na  7.740915 18.661852  9.421333
Na  5.160584 12.480521  5.970770
Na  5.160651 16.401683  8.212872
Na  7.740849 14.740690  7.179230
Ge  2.580345 10.380791  5.130701
Na 10.321036  8.281061  4.290632
Na  7.740705  2.099730  0.840069
Na  7.740772  6.020892  3.082171
Na 10.320970  4.359899  2.048529
Ge  5.160466  0.000000  0.000000
Na 10.321293 13.494795  9.421846
Na  7.740963  7.313464  5.971283
Na  7.741029 11.234626  8.213386
Na 10.321227  9.573633  7.179744
Ge  5.160723  5.213734  5.131214
Na 12.901123 13.448118  4.290118
Na 10.320793  7.266787  0.839555
Na 10.320859 11.187949  3.081658
Na 12.901057  9.526956  2.048016
Ge  7.740553  5.167057 -0.000514
Na 12.901380 18.661852  9.421333
Na 10.321050 12.480521  5.970770
Na 10.321116 16.401683  8.212872
Na 12.901314 14.740690  7.179230
Ge:1K  7.740810 10.380791  5.130701
%ENDBLOCK POSITIONS_ABS

!FIX_COM : true

%BLOCK species_pot
HARD
   Ge:1K      3|1.5|13|15|17|30U:31U:32:40:41(qc=6){1s1}
%ENDBLOCK species_pot



kpoint_mp_spacing : 0.03
