# CELL file written 09:59:02 (GMT+1.0) 23rd October 2021 from run atom

%BLOCK lattice_cart
   ANG
       5.16046562524181        0.00000000000000        0.00000000000000    
       2.58008726969096        5.16705705982057      -0.513570017474513E-03
      0.257268051728169E-03    5.21373398046595        5.13121428659881    
%ENDBLOCK lattice_cart

%BLOCK positions_frac
   Na             0.620573953121250       0.758852093757499       0.836258492531341
   Na             0.379426046878750       0.241147906242501       0.163741507468659
   Na             0.220453843197638       0.559092313604724       0.600726924771292
   Na             0.779546156802362       0.440907686395276       0.399273075228708
   Ge:exc        -0.000000000000000      -0.000000000000000      -0.000000000000000
%ENDBLOCK positions_frac

%BLOCK species_pot
Ge:exc 3|1.5|13|15|17|30U:31U:32:40:41(qc=6){1s1}
%ENDBLOCK species_pot

kpoint_mp_spacing : 0.05
