%BLOCK LATTICE_CART
       4.050000000000000       0.000000000000000       0.000000000000000
       0.000000000000000       4.050000000000000       0.000000000000000
       0.000000000000000       0.000000000000000       4.050000000000000
%ENDBLOCK LATTICE_CART

%BLOCK POSITIONS_FRAC
  Al   0.0000000000000000   0.0000000000000000   0.0000000000000000
  Al   0.5000000000000000   0.5000000000000000   0.0000000000000000
  Al   0.5000000000000000   0.0000000000000000   0.5000000000000000
  Al   0.0000000000000000   0.5000000000000000   0.5000000000000000
%ENDBLOCK POSITIONS_FRAC

KPOINTS_MP_GRID 15 15 15 

%BLOCK CELL_CONSTRAINTS
       1       2       3
       4       5       6
%ENDBLOCK CELL_CONSTRAINTS

SYMMETRY_GENERATE