%BLOCK LATTICE_CART
2 0 0 
0 2 0 
0 0 2
%ENDBLOCK  LATTICE_CART

%BLOCK POSITIONS_FRAC
H 0.0     0.0     0.0
%ENDBLOCK POSITIONS_FRAC

%BLOCK SPECIES_POT
H Zip_00.recpot
%ENDBLOCK SPECIES_POT

SYMMETRY_GENERATE

KPOINTS_MP_GRID 10 10 10  
SPECTRAL_KPOINTS_MP_GRID 10 10 10
