%BLOCK LATTICE_ABC
4 4 5
90 90 120
%ENDBLOCK LATTICE_ABC

%BLOCK POSITIONS_FRAC
H 0.0     0.0     0.0
%ENDBLOCK POSITIONS_FRAC
%BLOCK SPECIES_POT
H Zip_00.recpot
%ENDBLOCK SPECIES_POT

SYMMETRY_GENERATE

KPOINTS_MP_GRID 2 2 2 
SPECTRAL_KPOINT_MP_OFFSET 0.1625 0.2625 0.0625
SPECTRAL_KPOINTS_MP_GRID 4 4 4
