%BLOCK LATTICE_ABC
2.468 2.468 25
90.000000  90.000000  120.000000
%ENDBLOCK LATTICE_ABC

%BLOCK POSITIONS_FRAC
              C                    1/3 2/3 0  
              C                    2/3 1/3 0
%ENDBLOCK POSITIONS_FRAC

symmetry_generate

%BLOCK KPOINTS_LIST
0	0	0	1/21
0.01666665	0.01666665	0	1/21
0.0333333	0.0333333	0	1/21
0.04999995	0.04999995	0	1/21
0.0666666	0.0666666	0	1/21
0.08333325	0.08333325	0	1/21
0.0999999	0.0999999	0	1/21
0.11666655	0.11666655	0	1/21
0.1333332	0.1333332	0	1/21
0.14999985	0.14999985	0	1/21
0.1666665	0.1666665	0	1/21
0.18333315	0.18333315	0	1/21
0.1999998	0.1999998	0	1/21
0.21666645	0.21666645	0	1/21
0.2333331	0.2333331	0	1/21
0.24999975	0.24999975	0	1/21
0.2666664	0.2666664	0	1/21
0.28333305	0.28333305	0	1/21
0.2999997	0.2999997	0	1/21
0.31666635	0.31666635	0	1/21
0.333333	0.333333	0	1/21
%ENDBLOCK KPOINTS_LIST
